8
0, 867, 478, 282, 304, 548, 310, 582
867, 0, 732, 590, 993, 368, 652, 608
478, 732, 0, 452, 356, 375, 596, 159
282, 590, 452, 0, 496, 317, 148, 476
304, 993, 356, 496, 0, 628, 585, 510
548, 368, 375, 317, 628, 0, 442, 285
310, 652, 596, 148, 585, 442, 0, 625
582, 608, 159, 476, 510, 285, 625, 0
